c Instancia generada aleatoriamente
p edge 50 114
e 1 29
e 1 39
e 1 44
e 1 46
e 2 13
e 2 26
e 2 44
e 3 10
e 3 12
e 3 35
e 4 9
e 4 10
e 4 11
e 4 14
e 4 32
e 4 38
e 4 39
e 4 48
e 5 9
e 5 18
e 5 41
e 5 42
e 5 44
e 6 9
e 6 31
e 7 22
e 7 23
e 7 27
e 8 13
e 8 36
e 9 17
e 9 20
e 9 27
e 9 29
e 9 35
e 9 36
e 9 38
e 9 44
e 10 19
e 10 32
e 10 36
e 10 37
e 10 39
e 10 44
e 11 25
e 11 34
e 11 39
e 12 20
e 12 26
e 12 32
e 12 43
e 12 50
e 13 27
e 13 32
e 13 34
e 13 38
e 14 26
e 15 22
e 15 23
e 15 28
e 16 26
e 16 34
e 16 36
e 16 37
e 17 33
e 17 39
e 18 36
e 19 26
e 19 43
e 20 21
e 20 37
e 20 40
e 20 46
e 20 49
e 21 31
e 22 33
e 22 35
e 22 37
e 22 43
e 23 47
e 23 49
e 24 28
e 24 49
e 25 44
e 26 40
e 27 28
e 27 49
e 28 36
e 28 41
e 28 42
e 28 48
e 30 37
e 31 49
e 31 50
e 32 48
e 33 37
e 33 42
e 34 50
e 35 44
e 35 46
e 35 47
e 36 42
e 36 49
e 37 49
e 38 42
e 38 48
e 38 49
e 39 41
e 39 45
e 39 47
e 41 43
e 41 48
e 42 43
e 43 49
